Li8 O4
1.0
   3.0808823400000001    0.0000000000000000    0.0000000000000002
  -0.0000000000000003    5.0445716999999988    0.0000000000000003
   0.0000000000000000    0.0000000000000000    5.8165189599999989
Li O
8 4
direct
   0.2500000000000000    0.0115452699999990    0.1593165700000000 Li+
   0.2500000000000000    0.1411399599999990    0.5797902900000000 Li+
   0.7500000000000000    0.3588600400000000    0.0797902900000000 Li+
   0.7500000000000000    0.4884547300000001    0.6593165700000001 Li+
   0.2500000000000000    0.5115452699999991    0.3406834299999990 Li+
   0.2500000000000000    0.6411399599999991    0.9202097099999991 Li+
   0.7500000000000000    0.8588600400000000    0.4202097099999990 Li+
   0.7500000000000000    0.9884547300000001    0.8406834299999990 Li+
   0.7500000000000000    0.2464616399999990    0.3996299000000000 O2-
   0.2500000000000000    0.2535383600000000    0.8996299000000001 O2-
   0.7500000000000000    0.7464616399999990    0.1003700999999990 O2-
   0.2500000000000000    0.7535383600000001    0.6003700999999990 O2-
