Li6 P2 O8
1.0
   4.8134113300000001    0.0000000000000000    0.0000000000000003
  -0.0000000000000003    5.2019761300000003    0.0000000000000003
   0.0000000000000000    0.0000000000000000    6.0574667800000004
Li P O
6 2 8
direct
   0.5097160600000000    0.8421350400000001    0.0000000000000000 Li+
   0.0097160600000000    0.1578649599999990    0.5000000000000000 Li+
   0.5090582400000000    0.3277153700000000    0.2515256600000000 Li+
   0.0090582399999990    0.6722846300000000    0.2484743400000000 Li+
   0.0090582399999990    0.6722846300000000    0.7515256600000000 Li+
   0.5090582400000000    0.3277153700000000    0.7484743400000000 Li+
   0.5009835100000000    0.8254373800000000    0.5000000000000000 P5+
   0.0009835099999990    0.1745626200000000    0.0000000000000000 P5+
   0.1079422100000000    0.3131979800000000    0.7912975700000000 O2-
   0.6030606200000000    0.1064707800000000    0.5000000000000000 O2-
   0.1811419100000000    0.8198206700000000    0.5000000000000000 O2-
   0.6811419100000000    0.1801793299999990    0.0000000000000000 O2-
   0.6079422100000000    0.6868020200000000    0.2912975700000000 O2-
   0.1079422100000000    0.3131979800000000    0.2087024300000000 O2-
   0.1030606199999990    0.8935292200000000    0.0000000000000000 O2-
   0.6079422100000000    0.6868020200000000    0.7087024300000000 O2-
